c Generated map
c Size: 8 * 8, weights in range: 1 to 10, walls: False, with ratio 0.0
c dim 7 of 8
c
p sp 64 112
c graph contains 64 nodes and 112 arcs
c
a 1 9 6
a 9 1 6
a 1 2 5
a 2 1 5
a 2 10 5
a 10 2 5
a 2 3 3
a 3 2 3
a 3 11 1
a 11 3 1
a 3 4 4
a 4 3 4
a 4 12 1
a 12 4 1
a 4 5 1
a 5 4 1
a 5 13 7
a 13 5 7
a 5 6 1
a 6 5 1
a 6 14 2
a 14 6 2
a 6 7 10
a 7 6 10
a 7 15 2
a 15 7 2
a 7 8 7
a 8 7 7
a 8 16 3
a 16 8 3
a 9 17 1
a 17 9 1
a 9 10 3
a 10 9 3
a 10 18 8
a 18 10 8
a 10 11 3
a 11 10 3
a 11 19 2
a 19 11 2
a 11 12 9
a 12 11 9
a 12 20 8
a 20 12 8
a 12 13 7
a 13 12 7
a 13 21 2
a 21 13 2
a 13 14 9
a 14 13 9
a 14 22 3
a 22 14 3
a 14 15 3
a 15 14 3
a 15 23 2
a 23 15 2
a 15 16 3
a 16 15 3
a 16 24 2
a 24 16 2
a 17 25 5
a 25 17 5
a 17 18 9
a 18 17 9
a 18 26 6
a 26 18 6
a 18 19 5
a 19 18 5
a 19 27 4
a 27 19 4
a 19 20 8
a 20 19 8
a 20 28 8
a 28 20 8
a 20 21 9
a 21 20 9
a 21 29 2
a 29 21 2
a 21 22 3
a 22 21 3
a 22 30 3
a 30 22 3
a 22 23 9
a 23 22 9
a 23 31 9
a 31 23 9
a 23 24 4
a 24 23 4
a 24 32 4
a 32 24 4
a 25 33 9
a 33 25 9
a 25 26 3
a 26 25 3
a 26 34 9
a 34 26 9
a 26 27 4
a 27 26 4
a 27 35 5
a 35 27 5
a 27 28 6
a 28 27 6
a 28 36 3
a 36 28 3
a 28 29 10
a 29 28 10
a 29 37 10
a 37 29 10
a 29 30 10
a 30 29 10
a 30 38 7
a 38 30 7
a 30 31 3
a 31 30 3
a 31 39 6
a 39 31 6
a 31 32 6
a 32 31 6
a 32 40 9
a 40 32 9
a 33 41 3
a 41 33 3
a 33 34 8
a 34 33 8
a 34 42 5
a 42 34 5
a 34 35 10
a 35 34 10
a 35 43 8
a 43 35 8
a 35 36 10
a 36 35 10
a 36 44 1
a 44 36 1
a 36 37 2
a 37 36 2
a 37 45 2
a 45 37 2
a 37 38 7
a 38 37 7
a 38 46 3
a 46 38 3
a 38 39 9
a 39 38 9
a 39 47 4
a 47 39 4
a 39 40 7
a 40 39 7
a 40 48 6
a 48 40 6
a 41 49 4
a 49 41 4
a 41 42 8
a 42 41 8
a 42 50 8
a 50 42 8
a 42 43 2
a 43 42 2
a 43 51 7
a 51 43 7
a 43 44 6
a 44 43 6
a 44 52 7
a 52 44 7
a 44 45 2
a 45 44 2
a 45 53 8
a 53 45 8
a 45 46 9
a 46 45 9
a 46 54 10
a 54 46 10
a 46 47 8
a 47 46 8
a 47 55 6
a 55 47 6
a 47 48 6
a 48 47 6
a 48 56 9
a 56 48 9
a 49 57 3
a 57 49 3
a 49 50 7
a 50 49 7
a 50 58 9
a 58 50 9
a 50 51 9
a 51 50 9
a 51 59 6
a 59 51 6
a 51 52 10
a 52 51 10
a 52 60 4
a 60 52 4
a 52 53 3
a 53 52 3
a 53 61 3
a 61 53 3
a 53 54 5
a 54 53 5
a 54 62 9
a 62 54 9
a 54 55 6
a 55 54 6
a 55 63 3
a 63 55 3
a 55 56 5
a 56 55 5
a 56 64 1
a 64 56 1
a 57 58 6
a 58 57 6
a 58 59 2
a 59 58 2
a 59 60 4
a 60 59 4
a 60 61 3
a 61 60 3
a 61 62 8
a 62 61 8
a 62 63 2
a 63 62 2
a 63 64 8
a 64 63 8
